====================================================================================================================
File name: 200_20_97_15.def
Creation date: Mon Nov 24 20:40:31 CET 2014
Website: http://imopse.ii.pwr.edu.pl/
Reference:
Myszkowski P. B., Skowronski M. E., Olech L., Oslizlo K.,
Hybrid Ant Colony Optimization in solving Multi-Skill Resource-Constrained Project Scheduling Problem,
Soft Computing, DOI: DOI 10.1007/s00500-014-1455-x
====================================================================================================================
General characteristics:
Tasks: 200
Resources: 20
Precedence relations: 97
Number of skill types: 15
====================================================================================================================
ResourceID 	 Salary 	 Skills
1	 	 	78.8	 	 Q7: 0 	  Q6: 2 	  Q2: 2 	  Q3: 1 	  Q4: 1 	  Q1: 2
2	 	 	72.4	 	 Q4: 0 	  Q3: 2 	  Q7: 0 	  Q11: 1 	  Q6: 0 	  Q9: 2
3	 	 	77.8	 	 Q2: 0 	  Q10: 0 	  Q8: 1 	  Q1: 1 	  Q11: 2 	  Q14: 2
4	 	 	88.8	 	 Q8: 0 	  Q7: 1 	  Q5: 2 	  Q9: 1 	  Q4: 2 	  Q11: 1
5	 	 	94.5	 	 Q6: 1 	  Q9: 0 	  Q5: 0 	  Q2: 0 	  Q7: 0 	  Q12: 0
6	 	 	69.5	 	 Q7: 0 	  Q6: 0 	  Q14: 1 	  Q2: 0 	  Q1: 1 	  Q0: 2
7	 	 	98.0	 	 Q0: 1 	  Q14: 1 	  Q12: 2 	  Q9: 2 	  Q1: 2 	  Q10: 2
8	 	 	21.2	 	 Q14: 1 	  Q7: 1 	  Q5: 2 	  Q12: 2 	  Q9: 0 	  Q3: 1
9	 	 	33.2	 	 Q9: 2 	  Q11: 0 	  Q13: 1 	  Q1: 2 	  Q6: 2 	  Q8: 0
10	 	 	32.8	 	 Q11: 0 	  Q6: 2 	  Q13: 2 	  Q7: 2 	  Q8: 1 	  Q10: 1
11	 	 	55.7	 	 Q2: 0 	  Q6: 2 	  Q11: 1 	  Q10: 1 	  Q12: 0 	  Q3: 0
12	 	 	70.8	 	 Q11: 0 	  Q3: 1 	  Q4: 1 	  Q1: 0 	  Q2: 1 	  Q5: 0
13	 	 	81.6	 	 Q8: 2 	  Q5: 1 	  Q12: 0 	  Q10: 0 	  Q9: 0 	  Q6: 0
14	 	 	57.5	 	 Q0: 1 	  Q4: 0 	  Q8: 2 	  Q2: 1 	  Q11: 1 	  Q6: 0
15	 	 	13.6	 	 Q9: 2 	  Q5: 2 	  Q12: 0 	  Q3: 0 	  Q0: 1 	  Q4: 0
16	 	 	29.6	 	 Q6: 2 	  Q3: 1 	  Q14: 0 	  Q12: 1 	  Q4: 1 	  Q5: 0
17	 	 	29.0	 	 Q3: 2 	  Q1: 0 	  Q9: 0 	  Q5: 0 	  Q14: 0 	  Q11: 1
18	 	 	76.8	 	 Q8: 0 	  Q1: 2 	  Q4: 0 	  Q13: 1 	  Q2: 1 	  Q6: 2
19	 	 	45.8	 	 Q6: 1 	  Q0: 0 	  Q1: 2 	  Q13: 1 	  Q5: 1 	  Q2: 2
20	 	 	16.7	 	 Q3: 1 	  Q11: 0 	  Q0: 2 	  Q2: 0 	  Q6: 2 	  Q7: 0
====================================================================================================================
TaskID 	 Duration 	 Skill 	 Predecessor IDs
1	 	 	24	 Q14: 2
2	 	 	29	 Q1: 1
3	 	 	23	 Q8: 2
4	 	 	9	 Q2: 2
5	 	 	37	 Q2: 1
6	 	 	9	 Q2: 0
7	 	 	40	 Q11: 2
8	 	 	27	 Q0: 0
9	 	 	11	 Q5: 0
10	 	 	37	 Q3: 1
11	 	 	9	 Q12: 1
12	 	 	19	 Q6: 1
13	 	 	30	 Q7: 0
14	 	 	37	 Q1: 0
15	 	 	25	 Q8: 0
16	 	 	26	 Q1: 1
17	 	 	23	 Q6: 2
18	 	 	9	 Q5: 2
19	 	 	14	 Q8: 2
20	 	 	36	 Q5: 0
21	 	 	24	 Q8: 2
22	 	 	18	 Q0: 0	 	12
23	 	 	21	 Q5: 2
24	 	 	10	 Q1: 0
25	 	 	31	 Q5: 1
26	 	 	27	 Q14: 0
27	 	 	25	 Q11: 2
28	 	 	26	 Q9: 2
29	 	 	35	 Q12: 0
30	 	 	9	 Q13: 1
31	 	 	24	 Q9: 0	 	30
32	 	 	18	 Q8: 1
33	 	 	17	 Q1: 1
34	 	 	14	 Q14: 0
35	 	 	29	 Q7: 2
36	 	 	25	 Q7: 0	 	25
37	 	 	36	 Q3: 1
38	 	 	27	 Q5: 2
39	 	 	25	 Q5: 0
40	 	 	24	 Q9: 0
41	 	 	20	 Q10: 0
42	 	 	38	 Q4: 2
43	 	 	36	 Q9: 1
44	 	 	31	 Q2: 2	 	33
45	 	 	40	 Q13: 2
46	 	 	14	 Q11: 0	 	44
47	 	 	16	 Q2: 1
48	 	 	31	 Q0: 2
49	 	 	9	 Q3: 2
50	 	 	25	 Q10: 0
51	 	 	15	 Q6: 1
52	 	 	33	 Q4: 2
53	 	 	39	 Q12: 0
54	 	 	17	 Q11: 0
55	 	 	36	 Q5: 0
56	 	 	40	 Q13: 1
57	 	 	15	 Q8: 1
58	 	 	27	 Q9: 0
59	 	 	34	 Q5: 0
60	 	 	26	 Q10: 1
61	 	 	22	 Q6: 2
62	 	 	25	 Q14: 0
63	 	 	32	 Q9: 1	 	4	55
64	 	 	25	 Q7: 1
65	 	 	38	 Q0: 1
66	 	 	40	 Q1: 2
67	 	 	33	 Q8: 1	 	57
68	 	 	27	 Q1: 0	 	25
69	 	 	36	 Q0: 1
70	 	 	22	 Q6: 2
71	 	 	23	 Q1: 2
72	 	 	14	 Q1: 0
73	 	 	27	 Q11: 2
74	 	 	10	 Q2: 1
75	 	 	40	 Q8: 1
76	 	 	26	 Q12: 1
77	 	 	22	 Q14: 2
78	 	 	20	 Q8: 0
79	 	 	17	 Q10: 1
80	 	 	33	 Q9: 1	 	53	77
81	 	 	35	 Q10: 2
82	 	 	36	 Q5: 0	 	46
83	 	 	31	 Q14: 1	 	29
84	 	 	15	 Q14: 1	 	49
85	 	 	37	 Q5: 1	 	50
86	 	 	30	 Q2: 0
87	 	 	26	 Q1: 2	 	54
88	 	 	19	 Q10: 2	 	7
89	 	 	30	 Q7: 0
90	 	 	37	 Q0: 1	 	70
91	 	 	29	 Q4: 0
92	 	 	36	 Q9: 1
93	 	 	27	 Q11: 2	 	51	20
94	 	 	10	 Q8: 2	 	17	50	24
95	 	 	15	 Q7: 1
96	 	 	34	 Q4: 1	 	25
97	 	 	36	 Q4: 0
98	 	 	14	 Q7: 1
99	 	 	40	 Q14: 0	 	17
100	 	 	37	 Q6: 1
101	 	 	24	 Q3: 1
102	 	 	15	 Q12: 1
103	 	 	30	 Q10: 2
104	 	 	37	 Q13: 1
105	 	 	16	 Q3: 0
106	 	 	9	 Q8: 2
107	 	 	39	 Q14: 1
108	 	 	38	 Q10: 1
109	 	 	32	 Q11: 2	 	7
110	 	 	36	 Q1: 2
111	 	 	39	 Q14: 2
112	 	 	22	 Q11: 0	 	84
113	 	 	14	 Q2: 2	 	57
114	 	 	32	 Q14: 2
115	 	 	10	 Q6: 1
116	 	 	39	 Q1: 1	 	83
117	 	 	29	 Q0: 1
118	 	 	21	 Q5: 0	 	109
119	 	 	20	 Q11: 0
120	 	 	16	 Q7: 1	 	109	41
121	 	 	40	 Q0: 0	 	69
122	 	 	20	 Q5: 0	 	75
123	 	 	26	 Q8: 2
124	 	 	26	 Q6: 0	 	95
125	 	 	33	 Q12: 2	 	73
126	 	 	20	 Q13: 2	 	96	48
127	 	 	22	 Q3: 0	 	51	16
128	 	 	38	 Q11: 0	 	4
129	 	 	38	 Q5: 0
130	 	 	22	 Q1: 2
131	 	 	14	 Q0: 1
132	 	 	20	 Q2: 2
133	 	 	22	 Q3: 1	 	117
134	 	 	27	 Q4: 1	 	115
135	 	 	9	 Q5: 2	 	34	79
136	 	 	39	 Q7: 0	 	108
137	 	 	16	 Q9: 2	 	21
138	 	 	27	 Q4: 2
139	 	 	22	 Q1: 1
140	 	 	10	 Q4: 1
141	 	 	13	 Q12: 2	 	27
142	 	 	23	 Q13: 2	 	120
143	 	 	18	 Q10: 0
144	 	 	21	 Q3: 1	 	114
145	 	 	18	 Q8: 2
146	 	 	13	 Q9: 0
147	 	 	24	 Q0: 0
148	 	 	26	 Q12: 0	 	36
149	 	 	30	 Q3: 1
150	 	 	23	 Q3: 1	 	76
151	 	 	27	 Q10: 0	 	41
152	 	 	39	 Q1: 1
153	 	 	12	 Q10: 1
154	 	 	18	 Q14: 1	 	63
155	 	 	12	 Q2: 1
156	 	 	29	 Q4: 2	 	21
157	 	 	13	 Q5: 1
158	 	 	36	 Q5: 0
159	 	 	34	 Q2: 2	 	129
160	 	 	37	 Q1: 1
161	 	 	38	 Q12: 1	 	4
162	 	 	12	 Q14: 1	 	113
163	 	 	28	 Q14: 1	 	43
164	 	 	37	 Q10: 2	 	54	12
165	 	 	27	 Q6: 0	 	54	47
166	 	 	26	 Q3: 0
167	 	 	21	 Q12: 2	 	136
168	 	 	24	 Q6: 0	 	15
169	 	 	35	 Q12: 0	 	153
170	 	 	13	 Q12: 0
171	 	 	22	 Q1: 0
172	 	 	35	 Q13: 2	 	38
173	 	 	39	 Q8: 1
174	 	 	24	 Q5: 0	 	95
175	 	 	27	 Q10: 0	 	47
176	 	 	34	 Q4: 0
177	 	 	36	 Q3: 1	 	174
178	 	 	33	 Q14: 1
179	 	 	34	 Q0: 2
180	 	 	22	 Q5: 2	 	150
181	 	 	18	 Q0: 2	 	68
182	 	 	15	 Q7: 0	 	121
183	 	 	30	 Q11: 2	 	89	88
184	 	 	38	 Q2: 1	 	76	68
185	 	 	35	 Q10: 0	 	86	68	15	177
186	 	 	29	 Q10: 0	 	171
187	 	 	40	 Q4: 2	 	87	153	69	128	133
188	 	 	17	 Q1: 1	 	141
189	 	 	27	 Q4: 1	 	149
190	 	 	12	 Q12: 0	 	127	2	154
191	 	 	32	 Q8: 0	 	150
192	 	 	12	 Q14: 2	 	126
193	 	 	26	 Q11: 2
194	 	 	14	 Q8: 2	 	115	163
195	 	 	27	 Q4: 0
196	 	 	15	 Q3: 1	 	18
197	 	 	30	 Q4: 1
198	 	 	39	 Q13: 1
199	 	 	20	 Q12: 0
200	 	 	16	 Q12: 2
====================================================================================================================
